\ENCODING=ISO-8859-1
\Problem name: IloCplex

Minimize
 obj: - x1 - x2 - x3 - x4 - x5 + 0 x7 + 0 x8 + 0 x10 + 0 x11 + 0 x13 + 0 x14
      + 0 x16 + 0 x17 + 0 x19 + 0 x20 + 0 x22 + 0 x23 + 0 x25 + 0 x26 + 0 x28
      + 0 x29 + 0 x31 + 0 x32 + 0 x34 + 0 x35 + 0 x37 + 0 x38 + 0 x40 + 0 x41
      + 0 x43 + 0 x44 + 0 x46 + 0 x47 + 0 x49 + 0 x50 + 0 x52 + 0 x53 + 0 x55
      + 0 x56 + 0 x58 + 0 x59 + 0 x61 + 0 x62 + 0 x64 + 0 x65 + 0 x67 + 0 x68
      + 0 x70 + 0 x71 + 0 x73 + 0 x74 + 0 x76 + 0 x77 + 0 x79 + 0 x80 + 0 x82
      + 0 x83 + 0 x85 + 0 x86 + 0 x88 + 0 x89 + 0 x91 + 0 x92 + 0 x94 + 0 x95
      + 0 x97 + 0 x98 + 0 x100 + 0 x101 + 0 x103 + 0 x104 + 0 x106 + 0 x107
      + 0 x109 + 0 x110 + 0 x112 + 0 x113 + 0 x115 + 0 x116 + 0 x118 + 0 x119
      + 0 x121 + 0 x122 + 0 x124 + 0 x125
Subject To
 c1:  x6 + x9 + x12 + x15 >= 1
 c2:  x18 + x21 + x24 + x27 >= 1
 c3:  x30 + x33 + x36 + x39 >= 1
 c4:  x42 + x45 + x48 + x51 >= 1
 c5:  x54 + x57 + x60 + x63 >= 1
 c6:  x66 + x69 + x72 + x75 >= 1
 c7:  x78 + x81 + x84 + x87 >= 1
 c8:  x90 + x93 + x96 + x99 >= 1
 c9:  x102 + x105 + x108 + x111 >= 1
 c10: x114 + x117 + x120 + x123 >= 1
 i1:   x7 = 1 <-> 0.987688344263056 x1 - 0.156434571401596 x2
       <= -3.32501509144584
 i2:   x8 = 1 <-> 0.876740560225176 x1 - 1.10177366126138 x2
       <= 0.900132404144822
 i3:   x6 = 1 <-> x7 + x8 >= 2
 i4:   x10 = 1 <-> - 0.987688344263056 x1 + 0.156434571401596 x2
       <= 3.32501509144584
 i5:   x11 = 1 <-> - 0.876740560225176 x1 + 1.10177366126138 x2
       <= -0.900132404144822
 i6:   x9 = 1 <-> x10 + x11 >= 2
 i7:   x13 = 1 <-> 0.987688344263056 x1 - 0.156434571401596 x2
       <= -3.32501509144584
 i8:   x14 = 1 <-> - 1.51075902981375 x1 + 1.20219239002181 x2
       <= 1.23426655916774
 i9:   x12 = 1 <-> x13 + x14 >= 2
 i10:  x16 = 1 <-> - 0.987688344263056 x1 + 0.156434571401596 x2
       <= 3.32501509144584
 i11:  x17 = 1 <-> 1.51075902981375 x1 - 1.20219239002181 x2
       <= -1.23426655916774
 i12:  x15 = 1 <-> x16 + x17 >= 2
 i13:  x19 = 1 <-> 0.987688344263056 x1 + 0.891006518235001 x3
       <= -7.51477944999223
 i14:  x20 = 1 <-> 0.217101265082453 x1 - 0.399262180774642 x3
       <= 0.728643662768759
 i15:  x18 = 1 <-> x19 + x20 >= 2
 i16:  x22 = 1 <-> - 0.987688344263056 x1 - 0.891006518235001 x3
       <= 7.51477944999223
 i17:  x23 = 1 <-> - 0.217101265082453 x1 + 0.399262180774642 x3
       <= -0.728643662768759
 i18:  x21 = 1 <-> x22 + x23 >= 2
 i19:  x25 = 1 <-> 0.987688344263056 x1 + 0.891006518235001 x3
       <= -7.51477944999223
 i20:  x26 = 1 <-> - 0.411594607619859 x1 + 0.223807203890893 x3
       <= 0.751149614915861
 i21:  x24 = 1 <-> x25 + x26 >= 2
 i22:  x28 = 1 <-> - 0.987688344263056 x1 - 0.891006518235001 x3
       <= 7.51477944999223
 i23:  x29 = 1 <-> 0.411594607619859 x1 - 0.223807203890893 x3
       <= -0.751149614915861
 i24:  x27 = 1 <-> x28 + x29 >= 2
 i25:  x31 = 1 <-> 0.987688344263056 x1 + 0.707106765732237 x4
       <= -6.77918043998117
 i26:  x32 = 1 <-> - 0.472432348082443 x1 + 0.256887960714158 x4
       <= 0.862177549473139
 i27:  x30 = 1 <-> x31 + x32 >= 2
 i28:  x34 = 1 <-> - 0.987688344263056 x1 - 0.707106765732237 x4
       <= 6.77918043998117
 i29:  x35 = 1 <-> 0.472432348082443 x1 - 0.256887960714158 x4
       <= -0.862177549473139
 i30:  x33 = 1 <-> x34 + x35 >= 2
 i31:  x37 = 1 <-> 0.987688344263056 x1 + 0.707106765732237 x4
       <= -6.77918043998117
 i32:  x38 = 1 <-> 0.232922540838744 x1 - 0.428358028015819 x4
       <= 0.781741948708301
 i33:  x36 = 1 <-> x37 + x38 >= 2
 i34:  x40 = 1 <-> - 0.987688344263056 x1 - 0.707106765732237 x4
       <= 6.77918043998117
 i35:  x41 = 1 <-> - 0.232922540838744 x1 + 0.428358028015819 x4
       <= -0.781741948708301
 i36:  x39 = 1 <-> x40 + x41 >= 2
 i37:  x43 = 1 <-> 0.987688344263056 x1 - 0.4539901786139 x5
       <= -2.13479266259662
 i38:  x44 = 1 <-> - 2.86492054017206 x1 + 2.27976947871622 x5
       <= 2.34060424582337
 i39:  x42 = 1 <-> x43 + x44 >= 2
 i40:  x46 = 1 <-> - 0.987688344263056 x1 + 0.4539901786139 x5
       <= 2.13479266259662
 i41:  x47 = 1 <-> 2.86492054017206 x1 - 2.27976947871622 x5
       <= -2.34060424582337
 i42:  x45 = 1 <-> x46 + x47 >= 2
 i43:  x49 = 1 <-> 0.987688344263056 x1 - 0.4539901786139 x5
       <= -2.13479266259662
 i44:  x50 = 1 <-> 1.20813936707809 x1 - 1.51823180576813 x5
       <= 1.24036975476016
 i45:  x48 = 1 <-> x49 + x50 >= 2
 i46:  x52 = 1 <-> - 0.987688344263056 x1 + 0.4539901786139 x5
       <= 2.13479266259662
 i47:  x53 = 1 <-> - 1.20813936707809 x1 + 1.51823180576813 x5
       <= -1.24036975476016
 i48:  x51 = 1 <-> x52 + x53 >= 2
 i49:  x55 = 1 <-> 0.156434571401596 x2 + 0.891006518235001 x3
       <= -4.18976435854639
 i50:  x56 = 1 <-> 0.874459785409186 x2 - 1.09890763539854 x3
       <= 0.897791399957435
 i51:  x54 = 1 <-> x55 + x56 >= 2
 i52:  x58 = 1 <-> - 0.156434571401596 x2 - 0.891006518235001 x3
       <= 4.18976435854639
 i53:  x59 = 1 <-> - 0.874459785409186 x2 + 1.09890763539854 x3
       <= -0.897791399957435
 i54:  x57 = 1 <-> x58 + x59 >= 2
 i55:  x61 = 1 <-> 0.156434571401596 x2 + 0.891006518235001 x3
       <= -4.18976435854639
 i56:  x62 = 1 <-> - 0.936549418175423 x2 + 0.745262885535264 x3
       <= 0.765146130560635
 i57:  x60 = 1 <-> x61 + x62 >= 2
 i58:  x64 = 1 <-> - 0.156434571401596 x2 - 0.891006518235001 x3
       <= 4.18976435854639
 i59:  x65 = 1 <-> 0.936549418175423 x2 - 0.745262885535264 x3
       <= -0.765146130560635
 i60:  x63 = 1 <-> x64 + x65 >= 2
 i61:  x67 = 1 <-> 0.156434571401596 x2 + 0.707106765732237 x4
       <= -3.45416534853533
 i62:  x68 = 1 <-> 0.590857867955063 x2 - 1.08662316015903 x4
       <= 1.98306116881588
 i63:  x66 = 1 <-> x67 + x68 >= 2
 i64:  x70 = 1 <-> - 0.156434571401596 x2 - 0.707106765732237 x4
       <= 3.45416534853533
 i65:  x71 = 1 <-> - 0.590857867955063 x2 + 1.08662316015903 x4
       <= -1.98306116881588
 i66:  x69 = 1 <-> x70 + x71 >= 2
 i67:  x73 = 1 <-> 0.156434571401596 x2 + 0.707106765732237 x4
       <= -3.45416534853533
 i68:  x74 = 1 <-> - 0.741994495196546 x2 + 0.403464260043306 x4
       <= 1.35412094061296
 i69:  x72 = 1 <-> x73 + x74 >= 2
 i70:  x76 = 1 <-> - 0.156434571401596 x2 - 0.707106765732237 x4
       <= 3.45416534853533
 i71:  x77 = 1 <-> 0.741994495196546 x2 - 0.403464260043306 x4
       <= -1.35412094061296
 i72:  x75 = 1 <-> x76 + x77 >= 2
 i73:  x79 = 1 <-> 0.156434571401596 x2 - 0.4539901786139 x5
       <= 1.19022242884921
 i74:  x80 = 1 <-> 1.59322394621525 x2 - 0.86632407846545 x5
       <= -2.90759947099922
 i75:  x78 = 1 <-> x79 + x80 >= 2
 i76:  x82 = 1 <-> - 0.156434571401596 x2 + 0.4539901786139 x5
       <= -1.19022242884921
 i77:  x83 = 1 <-> - 1.59322394621525 x2 + 0.86632407846545 x5
       <= 2.90759947099922
 i78:  x81 = 1 <-> x82 + x83 >= 2
 i79:  x85 = 1 <-> 0.156434571401596 x2 - 0.4539901786139 x5
       <= 1.19022242884921
 i80:  x86 = 1 <-> - 3.53452516634644 x2 + 6.50019580155261 x5
       <= -11.8626825408247
 i81:  x84 = 1 <-> x85 + x86 >= 2
 i82:  x88 = 1 <-> - 0.156434571401596 x2 + 0.4539901786139 x5
       <= -1.19022242884921
 i83:  x89 = 1 <-> 3.53452516634644 x2 - 6.50019580155261 x5
       <= 11.8626825408247
 i84:  x87 = 1 <-> x88 + x89 >= 2
 i85:  x91 = 1 <-> - 0.891006518235001 x3 + 0.707106765732237 x4
       <= 0.735599010011056
 i86:  x92 = 1 <-> - 2.30506365820197 x3 + 2.89670474938815 x4
       <= -2.36656436474472
 i87:  x90 = 1 <-> x91 + x92 >= 2
 i88:  x94 = 1 <-> 0.891006518235001 x3 - 0.707106765732237 x4
       <= -0.735599010011056
 i89:  x95 = 1 <-> 2.30506365820197 x3 - 2.89670474938815 x4
       <= 2.36656436474472
 i90:  x93 = 1 <-> x94 + x95 >= 2
 i91:  x97 = 1 <-> - 0.891006518235001 x3 + 0.707106765732237 x4
       <= 0.735599010011056
 i92:  x98 = 1 <-> 496.6120460546 x3 - 395.187933101746 x4 <= -405.696451811415
 i93:  x96 = 1 <-> x97 + x98 >= 2
 i94:  x100 = 1 <-> 0.891006518235001 x3 - 0.707106765732237 x4
       <= -0.735599010011056
 i95:  x101 = 1 <-> - 496.6120460546 x3 + 395.187933101746 x4
       <= 405.696451811415
 i96:  x99 = 1 <-> x100 + x101 >= 2
 i97:  x103 = 1 <-> - 0.891006518235001 x3 - 0.4539901786139 x5
       <= 5.3799867873956
 i98:  x104 = 1 <-> - 0.280886892338896 x3 + 0.516568197156835 x5
       <= -0.942725219271753
 i99:  x102 = 1 <-> x103 + x104 >= 2
 i100: x106 = 1 <-> 0.891006518235001 x3 + 0.4539901786139 x5
       <= -5.3799867873956
 i101: x107 = 1 <-> 0.280886892338896 x3 - 0.516568197156835 x5
       <= 0.942725219271753
 i102: x105 = 1 <-> x106 + x107 >= 2
 i103: x109 = 1 <-> - 0.891006518235001 x3 - 0.4539901786139 x5
       <= 5.3799867873956
 i104: x110 = 1 <-> 0.626315530513358 x3 - 0.340563624248711 x5
       <= -1.14300762505859
 i105: x108 = 1 <-> x109 + x110 >= 2
 i106: x112 = 1 <-> 0.891006518235001 x3 + 0.4539901786139 x5
       <= -5.3799867873956
 i107: x113 = 1 <-> - 0.626315530513358 x3 + 0.340563624248711 x5
       <= 1.14300762505859
 i108: x111 = 1 <-> x112 + x113 >= 2
 i109: x115 = 1 <-> - 0.707106765732237 x4 - 0.4539901786139 x5
       <= 4.64438777738455
 i110: x116 = 1 <-> - 0.708374187084812 x4 + 0.890192941511668 x5
       <= -0.727275017707425
 i111: x114 = 1 <-> x115 + x116 >= 2
 i112: x118 = 1 <-> 0.707106765732237 x4 + 0.4539901786139 x5
       <= -4.64438777738455
 i113: x119 = 1 <-> 0.708374187084812 x4 - 0.890192941511668 x5
       <= 0.727275017707425
 i114: x117 = 1 <-> x118 + x119 >= 2
 i115: x121 = 1 <-> - 0.707106765732237 x4 - 0.4539901786139 x5
       <= 4.64438777738455
 i116: x122 = 1 <-> 0.935459122327779 x4 - 0.744395531215961 x5
       <= -0.764254364447271
 i117: x120 = 1 <-> x121 + x122 >= 2
 i118: x124 = 1 <-> 0.707106765732237 x4 + 0.4539901786139 x5
       <= -4.64438777738455
 i119: x125 = 1 <-> - 0.935459122327779 x4 + 0.744395531215961 x5
       <= 0.764254364447271
 i120: x123 = 1 <-> x124 + x125 >= 2
Bounds
-4 <= x1 <= 0
-4 <= x2 <= 0
-4 <= x3 <= 0
-4 <= x4 <= 0
-4 <= x5 <= 0
 0 <= x6 <= 1
 0 <= x7 <= 1
 0 <= x8 <= 1
 0 <= x9 <= 1
 0 <= x10 <= 1
 0 <= x11 <= 1
 0 <= x12 <= 1
 0 <= x13 <= 1
 0 <= x14 <= 1
 0 <= x15 <= 1
 0 <= x16 <= 1
 0 <= x17 <= 1
 0 <= x18 <= 1
 0 <= x19 <= 1
 0 <= x20 <= 1
 0 <= x21 <= 1
 0 <= x22 <= 1
 0 <= x23 <= 1
 0 <= x24 <= 1
 0 <= x25 <= 1
 0 <= x26 <= 1
 0 <= x27 <= 1
 0 <= x28 <= 1
 0 <= x29 <= 1
 0 <= x30 <= 1
 0 <= x31 <= 1
 0 <= x32 <= 1
 0 <= x33 <= 1
 0 <= x34 <= 1
 0 <= x35 <= 1
 0 <= x36 <= 1
 0 <= x37 <= 1
 0 <= x38 <= 1
 0 <= x39 <= 1
 0 <= x40 <= 1
 0 <= x41 <= 1
 0 <= x42 <= 1
 0 <= x43 <= 1
 0 <= x44 <= 1
 0 <= x45 <= 1
 0 <= x46 <= 1
 0 <= x47 <= 1
 0 <= x48 <= 1
 0 <= x49 <= 1
 0 <= x50 <= 1
 0 <= x51 <= 1
 0 <= x52 <= 1
 0 <= x53 <= 1
 0 <= x54 <= 1
 0 <= x55 <= 1
 0 <= x56 <= 1
 0 <= x57 <= 1
 0 <= x58 <= 1
 0 <= x59 <= 1
 0 <= x60 <= 1
 0 <= x61 <= 1
 0 <= x62 <= 1
 0 <= x63 <= 1
 0 <= x64 <= 1
 0 <= x65 <= 1
 0 <= x66 <= 1
 0 <= x67 <= 1
 0 <= x68 <= 1
 0 <= x69 <= 1
 0 <= x70 <= 1
 0 <= x71 <= 1
 0 <= x72 <= 1
 0 <= x73 <= 1
 0 <= x74 <= 1
 0 <= x75 <= 1
 0 <= x76 <= 1
 0 <= x77 <= 1
 0 <= x78 <= 1
 0 <= x79 <= 1
 0 <= x80 <= 1
 0 <= x81 <= 1
 0 <= x82 <= 1
 0 <= x83 <= 1
 0 <= x84 <= 1
 0 <= x85 <= 1
 0 <= x86 <= 1
 0 <= x87 <= 1
 0 <= x88 <= 1
 0 <= x89 <= 1
 0 <= x90 <= 1
 0 <= x91 <= 1
 0 <= x92 <= 1
 0 <= x93 <= 1
 0 <= x94 <= 1
 0 <= x95 <= 1
 0 <= x96 <= 1
 0 <= x97 <= 1
 0 <= x98 <= 1
 0 <= x99 <= 1
 0 <= x100 <= 1
 0 <= x101 <= 1
 0 <= x102 <= 1
 0 <= x103 <= 1
 0 <= x104 <= 1
 0 <= x105 <= 1
 0 <= x106 <= 1
 0 <= x107 <= 1
 0 <= x108 <= 1
 0 <= x109 <= 1
 0 <= x110 <= 1
 0 <= x111 <= 1
 0 <= x112 <= 1
 0 <= x113 <= 1
 0 <= x114 <= 1
 0 <= x115 <= 1
 0 <= x116 <= 1
 0 <= x117 <= 1
 0 <= x118 <= 1
 0 <= x119 <= 1
 0 <= x120 <= 1
 0 <= x121 <= 1
 0 <= x122 <= 1
 0 <= x123 <= 1
 0 <= x124 <= 1
 0 <= x125 <= 1
Binaries
 x6  x7  x8  x9  x10  x11  x12  x13  x14  x15  x16  x17  x18  x19  x20  x21 
 x22  x23  x24  x25  x26  x27  x28  x29  x30  x31  x32  x33  x34  x35  x36 
 x37  x38  x39  x40  x41  x42  x43  x44  x45  x46  x47  x48  x49  x50  x51 
 x52  x53  x54  x55  x56  x57  x58  x59  x60  x61  x62  x63  x64  x65  x66 
 x67  x68  x69  x70  x71  x72  x73  x74  x75  x76  x77  x78  x79  x80  x81 
 x82  x83  x84  x85  x86  x87  x88  x89  x90  x91  x92  x93  x94  x95  x96 
 x97  x98  x99  x100  x101  x102  x103  x104  x105  x106  x107  x108  x109 
 x110  x111  x112  x113  x114  x115  x116  x117  x118  x119  x120  x121  x122 
 x123  x124  x125 
End
